This is Ipopt version 3.10.1, running with linear solver mumps.

Number of nonzeros in equality constraint Jacobian...:      225
Number of nonzeros in inequality constraint Jacobian.:        0
Number of nonzeros in Lagrangian Hessian.............:     5568

Total number of variables............................:      114
                     variables with only lower bounds:        0
                variables with lower and upper bounds:      114
                     variables with only upper bounds:        0
Total number of equality constraints.................:       75
Total number of inequality constraints...............:        0
        inequality constraints with only lower bounds:        0
   inequality constraints with lower and upper bounds:        0
        inequality constraints with only upper bounds:        0

iter    objective    inf_pr   inf_du lg(mu)  ||d||  lg(rg) alpha_du alpha_pr  ls
   0 -4.7674882e-05 6.97e-03 2.96e-05  -1.0 0.00e+00    -  0.00e+00 0.00e+00   0
   1 -4.7019347e-05 2.22e-16 1.21e-04  -1.7 1.85e-02    -  9.99e-01 1.00e+00h  1
   2 -4.4471534e-05 2.22e-16 2.87e-03  -2.5 3.83e-02    -  9.76e-01 1.00e+00f  1
   3 -4.3409000e-05 4.44e-16 8.87e-05  -3.8 4.32e-02    -  9.89e-01 1.00e+00f  1
   4 -4.8162561e-05 6.66e-16 6.60e-05  -5.7 1.12e-02    -  9.71e-01 1.00e+00f  1
   5 -4.9255744e-05 2.66e-15 2.35e-05  -5.7 2.35e-03  -2.0 1.00e+00 1.00e+00f  1
   6 -5.2933944e-05 8.88e-16 2.50e-05  -5.7 7.45e-03  -2.5 1.00e+00 1.00e+00f  1
   7 -6.9901805e-05 2.22e-16 3.42e-05  -5.7 2.76e-02  -3.0 1.00e+00 1.00e+00f  1
   8 -3.8632802e-05 2.22e-16 5.98e-04  -5.7 1.16e+00  -3.4 1.28e-01 3.34e-01h  1
   9 -3.8632802e-05 2.22e-16 5.98e-04  -5.7 2.75e-01  -3.0 1.00e+00 1.16e-10f 34
iter    objective    inf_pr   inf_du lg(mu)  ||d||  lg(rg) alpha_du alpha_pr  ls
  10 -5.1033807e-04 2.22e-16 1.41e-03  -5.7 2.94e+00  -3.5 6.50e-02 6.81e-02f  1
  11 -1.0210462e-03 2.22e-16 1.36e-03  -5.7 1.16e-01  -2.2 1.00e+00 4.27e-01f  1
  12 -1.0107626e-03 2.22e-16 1.35e-03  -5.7 9.49e-02  -2.6 3.73e-01 7.81e-03f  8
  13 -1.0547535e-03 1.11e-16 6.65e-03  -5.7 5.84e-02  -1.3 1.00e+00 2.98e-01f  1
  14 -1.6077884e-03 2.22e-16 1.43e-03  -5.7 8.00e-02  -1.8 1.00e+00 3.69e-01f  1
  15 -1.5968040e-03 2.22e-16 1.43e-03  -5.7 1.31e-01  -2.3 1.48e-01 3.91e-03f  9
  16 -1.7858725e-03 2.22e-16 1.15e-02  -5.7 6.81e-01  -1.8 7.39e-01 1.18e-02f  1
  17 -1.7743095e-03 2.22e-16 9.88e-03  -5.7 1.46e-01  -2.3 1.11e-01 3.91e-03f  9
  18 -1.7670498e-03 1.99e-13 3.44e-02  -5.7 1.63e-01  -1.0 7.16e-01 3.12e-02f  6
  19 -2.4018099e-03 9.61e-14 1.60e-03  -5.7 4.78e-02  -1.5 1.00e+00 5.17e-01f  1
iter    objective    inf_pr   inf_du lg(mu)  ||d||  lg(rg) alpha_du alpha_pr  ls
  20 -3.0050704e-03 4.38e-13 1.69e-03  -5.7 1.82e-02  -1.0 1.00e+00 1.00e+00f  1
  21 -4.3757235e-03 8.99e-13 5.90e-03  -5.7 1.52e-01  -1.5 1.00e+00 2.16e-01f  1
  22 -4.9616465e-03 6.72e-13 2.90e-03  -5.7 4.54e-02  -1.1 1.00e+00 2.52e-01f  1
  23 -5.9678097e-03 6.71e-13 4.23e-02  -5.7 1.06e+01  -1.6 5.40e-02 1.77e-03f  1
  24 -7.4335109e-03 4.30e-13 5.34e-03  -5.7 7.10e-02  -1.1 1.00e+00 3.60e-01f  1
  25 -8.7197119e-03 1.02e-12 3.12e-02  -5.7 2.04e+00  -1.6 1.83e-01 1.18e-02f  1
  26 -1.0338201e-02 1.60e-12 8.18e-03  -5.7 6.98e-02  -1.2 1.00e+00 5.04e-01f  1
  27 -1.1542393e-02 2.08e-12 2.39e-02  -5.7 5.87e-01  -1.7 3.73e-01 4.15e-02f  1
  28 -1.2482740e-02 2.13e-12 6.88e-03  -5.7 6.13e-02  -1.2 1.00e+00 3.57e-01f  1
  29 -1.3555268e-02 1.95e-12 1.37e-02  -5.7 3.33e-01  -1.7 5.44e-01 8.37e-02f  1
iter    objective    inf_pr   inf_du lg(mu)  ||d||  lg(rg) alpha_du alpha_pr  ls
  30 -1.5457617e-02 2.45e-12 3.87e-03  -5.7 7.28e-02  -1.3 1.00e+00 6.37e-01f  1
  31 -1.6478512e-02 2.71e-12 8.51e-03  -5.7 2.59e+00  -1.8 6.31e-02 1.56e-02f  1
  32 -1.7367480e-02 2.50e-12 1.14e-02  -5.7 7.65e-02  -1.3 1.00e+00 2.02e-01f  1
  33 -1.8470842e-02 2.10e-12 7.94e-03  -5.7 9.52e-01  -1.8 7.72e-02 1.61e-01f  1
  34 -2.2837377e-02 5.73e-12 8.27e-03  -5.7 1.13e-01  -1.4 1.00e+00 6.25e-01f  1
  35 -2.4866812e-02 2.88e-12 5.75e-03  -5.7 4.33e-02  -1.0 1.00e+00 4.97e-01f  1
  36 -3.5009490e-02 5.44e-12 1.02e-02  -5.7 4.60e-01  -1.4 1.12e-01 1.92e-01f  1
  37 -3.9092184e-02 5.53e-12 1.12e-02  -5.7 1.38e-01  -1.0 1.35e-01 2.36e-01f  1
  38 -3.9084972e-02 5.53e-12 2.35e-02  -5.7 6.12e-01  -1.5 8.20e-02 8.52e-05f  8
  39 -4.3032901e-02 5.01e-12 2.17e-02  -5.7 2.41e-01  -1.1 9.42e-02 9.36e-02f  1
iter    objective    inf_pr   inf_du lg(mu)  ||d||  lg(rg) alpha_du alpha_pr  ls
  40 -4.8100648e-02 5.92e-12 1.36e-02  -5.7 5.59e-02  -0.6 4.48e-01 4.80e-01f  1
  41 -4.8135371e-02 5.91e-12 9.98e-03  -5.7 2.34e-01  -1.1 8.13e-02 7.75e-04f  1
  42 -5.3193793e-02 2.85e-12 2.18e-02  -5.7 4.49e-02  -0.7 1.00e+00 5.18e-01f  1
  43 -6.1119268e-02 2.54e-12 1.66e-02  -5.7 3.29e-01  -1.2 9.01e-02 1.10e-01f  1
  44 -6.3206011e-02 2.06e-12 1.55e-02  -5.7 5.70e-02  -0.7 3.13e-01 1.87e-01f  1
  45 -6.4669048e-02 2.02e-12 1.94e-02  -5.7 3.80e-01  -1.2 5.61e-02 1.81e-02f  1
  46 -6.6954380e-02 1.70e-12 4.10e-02  -5.7 8.39e-02  -0.8 6.15e-01 1.62e-01f  1
  47 -6.9142415e-02 1.63e-12 4.10e-02  -5.7 3.63e-01  -1.3 6.24e-02 3.91e-02f  1
  48 -7.0817034e-02 2.72e-12 4.18e-02  -5.7 6.58e-02  -0.8 1.00e+00 1.59e-01f  1
  49 -7.6834089e-02 5.79e-12 4.22e-02  -5.7 7.68e-01  -1.3 8.23e-02 5.48e-02f  1
iter    objective    inf_pr   inf_du lg(mu)  ||d||  lg(rg) alpha_du alpha_pr  ls
  50 -9.2004800e-02 1.15e-11 1.40e-02  -5.7 8.75e-02  -0.9 1.00e+00 9.00e-01f  1
  51 -9.8769801e-02 2.50e-12 1.34e-02  -5.7 3.75e-02  -0.5 1.00e+00 7.83e-01f  1
  52 -1.0094924e-01 2.38e-12 1.18e-01  -5.7 1.91e-01  -0.9 1.00e+00 4.86e-02f  1
  53 -1.1167665e-01 5.72e-14 1.58e-02  -5.7 4.89e-02  -0.5 1.00e+00 9.76e-01f  1
  54 -1.1529569e-01 8.92e-12 1.07e-01  -5.7 1.39e-01  -1.0 8.39e-01 2.48e-01f  1
  55 -1.1528778e-01 8.89e-12 1.06e-01  -5.7 3.23e-01    -  2.26e-01 3.18e-03f  8
  56 -1.1459733e-01 5.57e-12 6.78e-02  -5.7 2.89e-01    -  1.13e-01 3.73e-01h  1
  57 -1.1515887e-01 4.75e-12 1.90e-02  -5.7 1.12e-02  -0.6 8.45e-01 6.61e-01F  1
  58 -1.1561383e-01 3.95e-12 2.84e-02  -5.7 5.92e-02  -1.0 1.00e+00 1.36e-01f  1
  59 -1.2013733e-01 1.92e-12 1.40e-02  -5.7 1.57e-01  -1.5 5.16e-01 5.13e-01f  1
iter    objective    inf_pr   inf_du lg(mu)  ||d||  lg(rg) alpha_du alpha_pr  ls
  60 -1.2438438e-01 9.73e-12 9.31e-03  -5.7 6.45e-02  -1.1 1.00e+00 7.47e-01f  1
  61 -1.2438159e-01 9.73e-12 3.73e-02  -5.7 1.62e-01    -  2.75e-01 1.62e-04f 12
  62 -1.2232674e-01 9.66e-12 4.99e-02  -5.7 2.96e+00  -1.6 1.70e-02 7.14e-03h  1
  63 -1.2231855e-01 9.66e-12 2.80e-02  -5.7 2.14e-01  -2.1 1.03e-02 4.08e-04f  4
  64 -1.1555532e-01 9.01e-12 2.31e-02  -5.7 1.57e+00  -1.6 4.15e-02 6.72e-02h  2
  65 -1.1422012e-01 5.56e-12 2.33e-02  -5.7 1.03e-01    -  1.41e-01 3.83e-01h  1
  66 -1.1420883e-01 5.55e-12 2.99e-02  -5.7 2.06e-01  -2.1 1.05e-01 2.11e-03f  9
  67 -1.1433385e-01 5.49e-12 6.88e-02  -5.7 4.49e-01  -1.7 3.04e-01 1.00e-02f  1
  68 -1.1433174e-01 5.49e-12 6.69e-02  -5.7 3.98e-01  -2.2 7.55e-03 1.51e-04f  2
  69 -1.1433100e-01 5.49e-12 6.69e-02  -5.7 8.34e-02    -  4.30e-04 5.50e-04f  2
iter    objective    inf_pr   inf_du lg(mu)  ||d||  lg(rg) alpha_du alpha_pr  ls
  70 -1.1307613e-01 2.55e-12 8.17e-02  -5.7 1.18e-01  -2.6 1.63e-01 5.36e-01h  1
  71 -1.1306733e-01 2.53e-12 8.29e-02  -5.7 1.15e-01  -3.1 2.38e-01 6.05e-03f  7
  72 -1.1266914e-01 1.47e-12 5.58e-02  -5.7 1.00e-01  -3.6 1.26e-01 4.19e-01h  1
  73 -1.1330990e-01 1.78e-14 5.10e-02  -5.7 1.76e-02  -4.1 7.38e-02 1.00e+00f  1
  74 -1.1375436e-01 2.22e-16 3.97e-03  -5.7 8.99e-02    -  9.27e-01 1.00e+00f  1
  75 -1.1394011e-01 2.22e-16 2.70e-03  -5.7 7.22e-02    -  3.64e-01 3.29e-01f  1
  76 -1.1396507e-01 1.15e-11 3.27e-02  -5.7 8.47e-03  -0.9 9.44e-03 1.00e+00f  1
  77 -1.1400864e-01 4.63e-12 1.30e-02  -5.7 1.89e-02  -1.4 1.00e+00 5.96e-01h  1
  78 -1.1400870e-01 1.20e-11 3.90e-02  -5.7 6.63e-03  -1.0 1.88e-04 9.23e-03f  2
  79 -1.1400220e-01 2.43e-11 4.72e-02  -5.7 2.88e-03  -0.6 4.48e-02 1.00e+00f  1
iter    objective    inf_pr   inf_du lg(mu)  ||d||  lg(rg) alpha_du alpha_pr  ls
  80 -1.1403494e-01 1.19e-11 3.73e-04  -5.7 3.96e-03  -1.0 1.00e+00 1.00e+00f  1
  81 -1.1412357e-01 3.33e-16 3.76e-04  -5.7 4.88e-02    -  1.00e+00 1.00e+00f  1
  82 -1.1412491e-01 4.44e-16 1.30e-05  -5.7 9.16e-03    -  1.00e+00 1.00e+00f  1
  83 -1.1424715e-01 3.35e-14 3.33e-04  -8.6 1.34e-03  -0.6 9.99e-01 9.98e-01f  1
  84 -1.1425505e-01 3.51e-14 5.28e-04  -8.6 2.43e-03  -1.1 1.00e+00 6.04e-01f  1
  85 -1.1425504e-01 3.51e-14 1.13e-03  -8.6 2.57e-03    -  5.14e-01 1.95e-03f 10
  86 -1.1425254e-01 1.92e-14 8.19e-02  -8.6 2.57e-03    -  1.19e-02 4.50e-01h  1
  87 -1.1425251e-01 1.89e-14 8.28e-02  -8.6 1.41e-03    -  6.23e-01 1.56e-02f  7
  88 -1.1425340e-01 2.22e-16 1.74e-03  -8.6 4.63e-04  -0.7 5.66e-01 1.00e+00H  1
  89 -1.1427661e-01 2.22e-16 4.05e-04  -8.6 5.25e-03  -1.1 1.00e+00 1.00e+00f  1
iter    objective    inf_pr   inf_du lg(mu)  ||d||  lg(rg) alpha_du alpha_pr  ls
  90 -1.1425878e-01 6.66e-16 3.82e-03  -8.6 1.35e-02  -1.6 1.00e+00 2.50e-01h  3
  91 -1.1433871e-01 4.44e-16 3.10e-03  -8.6 1.73e-02  -1.2 1.00e+00 5.57e-01f  1
  92 -1.1433868e-01 4.44e-16 2.89e-03  -8.6 1.36e-02    -  1.61e-02 1.38e-04f 13
  93 -1.1433900e-01 4.44e-16 8.24e-02  -8.6 6.01e-03  -0.8 2.66e-04 4.13e-03f  1
  94 -1.1649870e-01 4.44e-16 5.79e-02  -8.6 1.57e-01  -1.2 6.47e-01 3.51e-01f  1
  95 -1.2430119e-01 4.44e-16 5.92e-02  -8.6 7.07e+00  -1.7 1.95e-02 1.49e-02f  1
  96 -1.2430119e-01 4.44e-16 5.13e-02  -8.6 1.52e-01    -  2.20e-01 3.18e-07f 22
  97 -1.2395856e-01 4.44e-16 5.03e-02  -8.6 1.52e-01    -  2.03e-02 2.03e-02s 17
  98 -1.1993467e-01 2.22e-16 3.88e-02  -8.6 1.50e-01    -  2.81e-01 0.00e+00S 17
  99 -1.1925987e-01 2.22e-16 6.91e-02  -8.6 1.28e-01    -  3.58e-01 6.71e-02h  2
iter    objective    inf_pr   inf_du lg(mu)  ||d||  lg(rg) alpha_du alpha_pr  ls
 100 -1.1366995e-01 2.22e-16 6.81e-02  -8.6 1.24e-01    -  2.92e-01 1.00e+00h  1
 101 -1.1318521e-01 2.22e-16 6.07e-02  -8.6 2.87e-01  -2.2 1.07e-01 1.07e-01s 21
 102 -1.1319481e-01 2.22e-16 5.93e-02  -8.6 2.12e-02  -0.9 2.33e-02 2.33e-02s 21
 103 -1.1318889e-01 2.22e-16 5.84e-02  -8.6 7.50e-02  -1.3 1.41e-02 1.41e-02s 21
Restoration phase is called at point that is almost feasible,
  with constraint violation 3.885781e-15. Abort.

Number of Iterations....: 103

                                   (scaled)                 (unscaled)
Objective...............:  -1.1318888908038946e-01   -1.1318888908038946e-01
Dual infeasibility......:   5.8423363875912834e-02    5.8423363875912834e-02
Constraint violation....:   2.2204460492503131e-16    2.2204460492503131e-16
Complementarity.........:   3.2365117582397828e-09    3.2365117582397828e-09
Overall NLP error.......:   5.8423363875912834e-02    5.8423363875912834e-02


Number of objective function evaluations             = 318
Number of objective gradient evaluations             = 105
Number of equality constraint evaluations            = 318
Number of inequality constraint evaluations          = 0
Number of equality constraint Jacobian evaluations   = 1
Number of inequality constraint Jacobian evaluations = 0
Number of Lagrangian Hessian evaluations             = 104
Total CPU secs in IPOPT (w/o function evaluations)   =      1.740
Total CPU secs in NLP function evaluations           =     28.810

EXIT: Restoration Failed!
